CMD:
./solvers/bin/cadical --plain --no-reduce -t 1600 ./data/cnfs//ringp0/ringp0.82.cnf

c --- [ banner ] -------------------------------------------------------------
c 
c CaDiCaL SAT Solver
c Copyright (c) 2016-2024
c A. Biere, M. Fleury, N. Froleyks, K. Fazekas, F. Pollitt, T. Faller
c JKU Linz, University of Freiburg, TU Wien
c 
c Version 2.1.3 5296d3d2a9bf48c154ab2acb5e44625776d821bf
c g++ (Gentoo 12.3.1_p20230526 p2) 12.3.1 20230526 -Wall -Wextra -O3 -DNDEBUG
c Sat Aug 9 07:26:21 PDT 2025 Linux cedar2.int.cedar.computecanada.ca 5.14.0-362.24.2.el9_3.x86_64 x86_64
c 
c --- [ limit ] --------------------------------------------------------------
c 
c setting time limit to 1600 seconds real time (due to '-t 1600')
c 
c --- [ parsing input ] ------------------------------------------------------
c 
c reading DIMACS file from './data/cnfs//ringp0/ringp0.82.cnf'
c opening file to read './data/cnfs//ringp0/ringp0.82.cnf'
c found 'p cnf 13469 36379' header
c parsed 36379 clauses in 0.01 seconds process time
c 
c --- [ options ] ------------------------------------------------------------
c 
c   --compact=false                (different from default 'true')
c   --decompose=false              (different from default 'true')
c   --deduplicate=false            (different from default 'true')
c   --elim=false                   (different from default 'true')
c   --probe=false                  (different from default 'true')
c   --reduce=false                 (different from default 'true')
c   --subsume=false                (different from default 'true')
c   --ternary=false                (different from default 'true')
c   --transred=false               (different from default 'true')
c   --vivify=false                 (different from default 'true')
c 
c --- [ solving ] ------------------------------------------------------------
c 
c time measured in process time since initialization
c 
c  seconds  reductions  redundant  irredundant
c         MB    restarts       trail     variables
c          level   conflicts       glue       remaining
c 
c *  0.01  9  0 0   0    0    0  0% 0 34685 9576 71%
c {  0.01 10  0 0   0    0    0  0% 0 34685 9576 71%
c i  0.02 10 230 0   0  559  241 70% 1 34685 9575 71%
c }  0.02 10 206 0   8  657  334 70% 10 34685 9575 71%
c 1  0.02 10 206 0   8  657  334 70% 10 34685 9575 71%
c 
c --- [ result ] -------------------------------------------------------------
c 
s SATISFIABLE
v 1 -2 3 4 -5 6 7 8 -9 10 -11 12 13 -14 15 -16 -17 -18 -19 -20 -21 -22 -23 -24
v -25 -26 -27 -28 -29 -30 -31 -32 -33 -34 -35 -36 -37 -38 -39 -40 -41 -42 43
v -44 -45 -46 -47 48 -49 -50 51 -52 -53 54 -55 56 -57 58 -59 -60 61 -62 -63 64
v -65 -66 -67 -68 69 -70 -71 -72 73 -74 75 -76 -77 78 -79 -80 -81 82 -83 -84
v -85 -86 -87 -88 89 90 -91 -92 -93 -94 -95 -96 97 -98 -99 100 -101 -102 -103
v 104 -105 -106 107 -108 -109 -110 111 -112 -113 -114 115 -116 -117 118 -119
v -120 121 -122 -123 -124 125 -126 -127 -128 129 -130 -131 132 -133 -134 135
v -136 -137 -138 139 -140 -141 142 -143 -144 -145 -146 147 -148 -149 150 -151
v -152 153 -154 -155 156 -157 -158 159 -160 -161 162 -163 -164 165 166 167 168
v 169 170 171 -172 -173 -174 -175 -176 -177 -178 -179 180 -181 -182 -183 184
v -185 186 -187 -188 189 -190 -191 -192 -193 -194 -195 -196 -197 -198 -199
v -200 -201 -202 -203 -204 -205 206 -207 208 -209 -210 211 -212 -213 -214 -215
v 216 217 -218 -219 -220 -221 -222 223 -224 225 -226 -227 -228 229 -230 -231
v -232 233 -234 -235 236 -237 -238 239 240 -241 -242 243 -244 245 -246 247
v -248 249 -250 -251 252 -253 -254 255 -256 257 -258 -259 260 -261 -262 -263
v 264 -265 -266 267 -268 269 -270 -271 -272 273 -274 -275 276 277 278 279 -280
v -281 282 283 -284 -285 -286 287 288 -289 -290 291 292 -293 -294 295 296 -297
v -298 -299 -300 301 -302 303 304 -305 -306 307 308 -309 -310 311 312 -313
v -314 -315 -316 317 -318 319 320 -321 -322 323 324 -325 -326 327 328 -329
v -330 331 332 -333 -334 335 -336 337 -338 -339 -340 -341 342 343 -344 345 346
v -347 -348 349 -350 -351 -352 -353 -354 -355 -356 -357 -358 -359 -360 -361
v -362 -363 -364 -365 -366 -367 368 -369 -370 -371 372 -373 374 -375 -376 377
v -378 -379 -380 381 -382 383 384 -385 386 -387 -388 -389 390 -391 -392 393
v -394 395 396 -397 -398 399 400 401 -402 -403 -404 -405 406 -407 408 -409
v -410 411 -412 -413 414 -415 -416 417 -418 419 -420 -421 422 -423 -424 -425
v 426 -427 -428 -429 -430 431 -432 433 -434 435 -436 -437 438 439 440 441 -442
v -443 444 445 -446 -447 -448 449 450 -451 -452 453 454 -455 -456 457 458 -459
v -460 -461 -462 463 -464 465 466 -467 -468 469 470 -471 -472 473 474 -475
v -476 -477 -478 479 -480 481 482 -483 -484 485 486 -487 -488 489 490 -491
v -492 493 494 -495 -496 497 -498 499 -500 -501 -502 -503 504 505 -506 507 508
v -509 -510 511 -512 -513 -514 -515 -516 -517 -518 -519 -520 -521 -522 -523
v -524 -525 526 -527 -528 -529 530 -531 -532 -533 534 -535 536 -537 -538 539
v -540 -541 -542 543 -544 545 -546 -547 548 -549 -550 -551 -552 553 554 -555
v -556 557 558 -559 -560 -561 562 563 -564 -565 -566 -567 568 -569 570 -571
v -572 573 -574 -575 576 -577 -578 579 -580 581 -582 -583 584 -585 -586 -587
v 588 -589 -590 -591 -592 593 -594 595 -596 597 -598 -599 600 601 602 603 -604
v -605 606 607 -608 -609 -610 611 612 -613 -614 615 616 -617 -618 619 620 -621
v -622 -623 -624 625 -626 627 628 -629 -630 631 632 -633 -634 635 636 -637
v -638 -639 -640 641 -642 643 644 -645 -646 647 648 -649 -650 651 652 -653
v -654 655 656 -657 -658 659 -660 661 -662 -663 -664 -665 666 667 -668 669 670
v -671 -672 673 -674 -675 -676 -677 -678 -679 -680 -681 -682 -683 -684 -685
v -686 -687 688 -689 -690 -691 692 -693 -694 -695 696 -697 698 -699 -700 701
v -702 -703 -704 705 -706 707 -708 -709 710 -711 -712 -713 -714 715 716 -717
v -718 719 720 -721 -722 -723 724 725 -726 -727 -728 -729 730 -731 732 -733
v -734 735 -736 -737 738 -739 -740 741 -742 743 -744 -745 746 -747 -748 -749
... skipped 951 lines ...
v -12847 12848 -12849 -12850 12851 -12852 -12853 -12854 12855 -12856 -12857
v 12858 -12859 -12860 12861 -12862 -12863 -12864 12865 12866 -12867 -12868
v -12869 -12870 12871 -12872 -12873 12874 12875 -12876 -12877 -12878 12879
v -12880 12881 -12882 -12883 12884 -12885 -12886 12887 -12888 -12889 12890
v -12891 -12892 12893 -12894 12895 -12896 -12897 12898 12899 -12900 12901
v -12902 -12903 12904 -12905 12906 -12907 12908 12909 -12910 -12911 12912
v 12913 12914 12915 -12916 -12917 12918 12919 -12920 -12921 -12922 12923 12924
v -12925 -12926 12927 12928 -12929 -12930 12931 12932 -12933 -12934 -12935
v -12936 12937 -12938 12939 12940 -12941 -12942 12943 12944 -12945 -12946
v 12947 12948 -12949 -12950 12951 12952 -12953 -12954 12955 12956 -12957
v -12958 12959 12960 -12961 -12962 12963 12964 -12965 -12966 -12967 -12968
v 12969 -12970 12971 -12972 12973 -12974 -12975 -12976 -12977 12978 12979
v -12980 12981 12982 -12983 -12984 12985 -12986 -12987 -12988 -12989 -12990
v -12991 -12992 -12993 -12994 -12995 -12996 -12997 12998 -12999 -13000 -13001
v 13002 -13003 13004 -13005 -13006 -13007 13008 -13009 13010 -13011 -13012
v 13013 -13014 -13015 -13016 13017 -13018 -13019 13020 -13021 -13022 -13023
v -13024 -13025 13026 -13027 -13028 13029 -13030 13031 13032 -13033 -13034
v 13035 13036 13037 -13038 -13039 -13040 13041 -13042 -13043 -13044 -13045
v 13046 -13047 13048 13049 -13050 -13051 13052 -13053 -13054 13055 -13056
v 13057 -13058 13059 -13060 13061 -13062 13063 -13064 -13065 13066 -13067
v -13068 13069 13070 13071 -13072 -13073 13074 13075 13076 13077 -13078 -13079
v 13080 13081 -13082 -13083 -13084 13085 13086 -13087 -13088 13089 13090
v -13091 -13092 13093 13094 -13095 -13096 -13097 -13098 13099 -13100 13101
v 13102 -13103 -13104 13105 13106 -13107 -13108 13109 13110 -13111 -13112
v 13113 13114 -13115 -13116 13117 13118 -13119 -13120 13121 13122 -13123
v -13124 13125 13126 -13127 -13128 -13129 -13130 13131 -13132 13133 -13134
v 13135 -13136 -13137 -13138 -13139 -13140 13141 13142 13143 13144 -13145
v -13146 13147 -13148 -13149 -13150 -13151 -13152 -13153 -13154 -13155 -13156
v -13157 -13158 -13159 13160 -13161 13162 -13163 13164 -13165 13166 13167
v -13168 13169 13170 -13171 -13172 -13173 -13174 13175 -13176 -13177 -13178
v 13179 -13180 -13181 -13182 -13183 -13184 -13185 -13186 -13187 -13188 13189
v 13190 -13191 -13192 13193 13194 -13195 -13196 -13197 13198 13199 -13200
v -13201 -13202 13203 -13204 13205 -13206 13207 13208 -13209 -13210 13211
v -13212 -13213 13214 -13215 -13216 13217 -13218 13219 -13220 13221 -13222
v 13223 -13224 -13225 13226 -13227 13228 -13229 -13230 13231 13232 13233
v -13234 -13235 13236 13237 13238 13239 -13240 -13241 13242 13243 -13244
v -13245 -13246 13247 13248 -13249 -13250 13251 13252 -13253 -13254 13255
v 13256 -13257 -13258 -13259 -13260 13261 -13262 13263 13264 -13265 -13266
v 13267 13268 -13269 -13270 13271 13272 -13273 -13274 13275 13276 -13277
v -13278 13279 13280 -13281 -13282 13283 13284 -13285 -13286 13287 13288
v -13289 -13290 -13291 -13292 13293 -13294 13295 -13296 13297 -13298 -13299
v -13300 -13301 -13302 -13303 13304 13305 13306 -13307 13308 13309 13310
v -13311 13312 13313 13314 13315 13316 13317 13318 13319 13320 13321 13322
v 13323 13324 13325 13326 13327 13328 13329 13330 13331 13332 -13333 -13334
v -13335 -13336 -13337 -13338 -13339 -13340 13341 -13342 -13343 -13344 -13345
v -13346 -13347 -13348 -13349 13350 -13351 -13352 -13353 13354 13355 13356
v -13357 -13358 -13359 -13360 -13361 -13362 13363 13364 13365 -13366 -13367
v -13368 13369 13370 -13371 -13372 13373 -13374 13375 13376 -13377 13378
v -13379 -13380 13381 -13382 13383 -13384 13385 -13386 -13387 13388 -13389
v 13390 -13391 -13392 13393 13394 -13395 13396 -13397 -13398 -13399 13400
v -13401 -13402 -13403 13404 13405 -13406 -13407 -13408 13409 -13410 -13411
v -13412 13413 13414 -13415 -13416 -13417 -13418 13419 -13420 -13421 13422
v 13423 -13424 13425 -13426 -13427 -13428 13429 13430 -13431 -13432 13433
v -13434 -13435 -13436 13437 13438 -13439 -13440 13441 -13442 -13443 -13444
v 13445 13446 -13447 -13448 -13449 13450 13451 -13452 -13453 13454 13455
v -13456 13457 -13458 13459 -13460 -13461 -13462 -13463 -13464 13465 13466
v 13467 13468 -13469 0
c 
c --- [ run-time profiling ] -------------------------------------------------
c 
c process time taken by individual solving procedures
c (percentage relative to process time for solving)
c 
c         0.02   99.51% search
c         0.01   92.60% unstable
c         0.01   36.93% parse
c         0.00    6.73% lucky
c         0.00    0.00% simplify
c   =================================
c         0.02   69.61% solve
c 
c last line shows process time for solving
c (percentage relative to total process time)
c 
c --- [ statistics ] ---------------------------------------------------------
c 
c chronological:               325        49.47 %  of conflicts
c conflicts:                   657     43363.47    per second
c decisions:                  3290    217147.38    per second
c fixed:                      3894        28.91 %  of all variables
c learned:                     335        50.99 %  per conflict
c learned_lits:               4241       100.00 %  learned literals
c minimized:                     0         0.00 %  learned literals
c shrunken:                    314         7.40 %  learned literals
c minishrunken:                  3         0.07 %  learned literals
c otfs:                          0         0.00 %  of conflict
c propagations:            1117401        73.75 M  per second
c restarts:                      8        82.12    interval
c 
c seconds are measured in process time for solving
c 
c --- [ resources ] ----------------------------------------------------------
c 
c total process time since initialization:         0.02    seconds
c total real time since initialization:            0.02    seconds
c maximum resident set size of process:           29.84    MB
c 
c --- [ shutting down ] ------------------------------------------------------
c 
c exit 10
